nK = 1563;
nT = 8;
nI = 21;
L = 29;
TT = 322;
np = 1;
nc = 3;
b = [41, 46, 61, 26, 60, 60, 55, 57, 52, 69, 45, 69, 47, 57, 60, 27, 31, 42, 62, 22, 46];
d = [111, 121, 117, 67, 98, 143, 127, 103, 100, 147, 73, 141, 120, 150, 118, 69, 106, 129, 105, 87, 123];
m = [2.1, 1.1, 2.5, 2.1, 1.7, 2.3, 2.1, 1.4, 1.6, 1, 1.1, 2, 1.7, 1, 2.2, 1.7, 1.9, 1.4, 1.4, 1, 1.8];
pt = [0.34, 0.24, 0.31, 0.3, 0.25, 0.27, 0.2, 0.27];
st = [19.72, 10.32, 17.98, 14.7, 10.5, 15.12, 9.4, 14.31];
arc = {<1, 0, 1, 1, 0, 0, 0, [1, 1, 1, 1, 1, 1, 1, 1]>, <2, 1, 2, 1, 0, 0, 0, [1, 1, 1, 1, 1, 1, 1, 1]>, <3, 2, 3, 1, 0, 0, 0, [1, 1, 1, 1, 1, 1, 1, 1]>, <4, 3, 4, 1, 0, 0, 0, [1, 1, 1, 1, 1, 1, 1, 1]>, <5, 4, 5, 1, 0, 0, 0, [1, 1, 1, 1, 1, 1, 1, 1]>, <6, 5, 6, 1, 0, 0, 0, [1, 1, 1, 1, 1, 1, 1, 1]>, <7, 6, 7, 1, 0, 0, 0, [1, 1, 1, 1, 1, 1, 1, 1]>, <8, 7, 8, 1, 0, 0, 0, [1, 1, 1, 1, 1, 1, 1, 1]>, <9, 8, 9, 1, 0, 0, 0, [1, 1, 1, 1, 1, 1, 1, 1]>, <10, 9, 10, 1, 0, 0, 0, [1, 1, 1, 1, 1, 1, 1, 1]>, <11, 10, 11, 1, 0, 0, 0, [1, 1, 1, 1, 1, 1, 1, 1]>, <12, 11, 12, 1, 0, 0, 0, [1, 1, 1, 1, 1, 1, 1, 1]>, <13, 12, 13, 1, 0, 0, 0, [1, 1, 1, 1, 1, 1, 1, 1]>, <14, 13, 14, 1, 0, 0, 0, [1, 1, 1, 1, 1, 1, 1, 1]>, <15, 14, 15, 1, 0, 0, 0, [1, 1, 1, 1, 1, 1, 1, 1]>, <16, 15, 16, 1, 0, 0, 0, [1, 1, 1, 1, 1, 1, 1, 1]>, <17, 16, 17, 1, 0, 0, 0, [1, 1, 1, 1, 1, 1, 1, 1]>, <18, 17, 18, 1, 0, 0, 0, [1, 1, 1, 1, 1, 1, 1, 1]>, <19, 18, 19, 1, 0, 0, 0, [1, 1, 1, 1, 1, 1, 1, 1]>, <20, 19, 20, 1, 0, 0, 0, [1, 1, 1, 1, 1, 1, 1, 1]>, <21, 20, 21, 1, 0, 0, 0, [1, 1, 1, 1, 1, 1, 1, 1]>, <22, 21, 22, 1, 0, 0, 0, [1, 1, 1, 1, 1, 1, 1, 1]>, <23, 22, 23, 1, 0, 0, 0, [1, 1, 1, 1, 1, 1, 1, 1]>, <24, 23, 24, 1, 0, 0, 0, [1, 1, 1, 1, 1, 1, 1, 1]>, <25, 24, 25, 1, 0, 0, 0, [1, 1, 1, 1, 1, 1, 1, 1]>, <26, 25, 26, 1, 0, 0, 0, [1, 1, 1, 1, 1, 1, 1, 1]>, <27, 26, 27, 1, 0, 0, 0, [1, 1, 1, 1, 1, 1, 1, 1]>, <28, 27, 28, 1, 0, 0, 0, [1, 1, 1, 1, 1, 1, 1, 1]>, <29, 28, 29, 1, 0, 0, 0, [1, 1, 1, 1, 1, 1, 1, 1]>, <30, 3, 12, 9, 1, 0, 0, [0, 0, 0, 0, 1, 1, 0, 0]>, <31, 4, 13, 9, 1, 0, 0, [0, 0, 0, 0, 1, 1, 0, 0]>, <32, 5, 14, 9, 1, 0, 0, [0, 0, 0, 0, 1, 1, 0, 0]>, <33, 11, 20, 9, 1, 0, 0, [0, 0, 0, 0, 1, 1, 0, 0]>, <34, 12, 21, 9, 1, 0, 0, [0, 0, 0, 0, 1, 1, 0, 0]>, <35, 15, 24, 9, 1, 0, 0, [0, 0, 0, 0, 1, 1, 0, 0]>, <36, 16, 25, 9, 1, 0, 0, [0, 0, 0, 0, 1, 1, 0, 0]>, <37, 17, 26, 9, 1, 0, 0, [0, 0, 0, 0, 1, 1, 0, 0]>, <38, 18, 27, 9, 1, 0, 0, [0, 0, 0, 0, 1, 1, 0, 0]>, <39, 19, 28, 9, 1, 0, 0, [0, 0, 0, 0, 1, 1, 0, 0]>, <40, 20, 29, 9, 1, 0, 0, [0, 0, 0, 0, 1, 1, 0, 0]>, <41, 4, 12, 8, 2, 0, 1, [0, 0, 1, 1, 0, 0, 0, 0]>, <42, 5, 13, 8, 2, 0, 1, [0, 0, 1, 1, 0, 0, 0, 0]>, <43, 11, 19, 8, 2, 0, 1, [0, 0, 1, 1, 0, 0, 0, 0]>, <44, 12, 20, 8, 2, 0, 1, [0, 0, 1, 1, 0, 0, 0, 0]>, <45, 16, 24, 8, 2, 0, 1, [0, 0, 1, 1, 0, 0, 0, 0]>, <46, 17, 25, 8, 2, 0, 1, [0, 0, 1, 1, 0, 0, 0, 0]>, <47, 18, 26, 8, 2, 0, 1, [0, 0, 1, 1, 0, 0, 0, 0]>, <48, 19, 27, 8, 2, 0, 1, [0, 0, 1, 1, 0, 0, 0, 0]>, <49, 20, 28, 8, 2, 0, 1, [0, 0, 1, 1, 0, 0, 0, 0]>, <50, 1, 12, 11, 3, 0, 0, [1, 1, 0, 0, 0, 0, 0, 0]>, <51, 2, 13, 11, 3, 0, 0, [1, 1, 0, 0, 0, 0, 0, 0]>, <52, 3, 14, 11, 3, 0, 0, [1, 1, 0, 0, 0, 0, 0, 0]>, <53, 4, 15, 11, 3, 0, 0, [1, 1, 0, 0, 0, 0, 0, 0]>, <54, 5, 16, 11, 3, 0, 0, [1, 1, 0, 0, 0, 0, 0, 0]>, <55, 9, 20, 11, 3, 0, 0, [1, 1, 0, 0, 0, 0, 0, 0]>, <56, 10, 21, 11, 3, 0, 0, [1, 1, 0, 0, 0, 0, 0, 0]>, <57, 11, 22, 11, 3, 0, 0, [1, 1, 0, 0, 0, 0, 0, 0]>, <58, 12, 23, 11, 3, 0, 0, [1, 1, 0, 0, 0, 0, 0, 0]>, <59, 13, 24, 11, 3, 0, 0, [1, 1, 0, 0, 0, 0, 0, 0]>, <60, 14, 25, 11, 3, 0, 0, [1, 1, 0, 0, 0, 0, 0, 0]>, <61, 15, 26, 11, 3, 0, 0, [1, 1, 0, 0, 0, 0, 0, 0]>, <62, 16, 27, 11, 3, 0, 0, [1, 1, 0, 0, 0, 0, 0, 0]>, <63, 17, 28, 11, 3, 0, 0, [1, 1, 0, 0, 0, 0, 0, 0]>, <64, 18, 29, 11, 3, 0, 0, [1, 1, 0, 0, 0, 0, 0, 0]>, <65, 3, 12, 9, 4, 0, 1, [1, 0, 0, 0, 0, 0, 0, 1]>, <66, 4, 13, 9, 4, 0, 1, [1, 0, 0, 0, 0, 0, 0, 1]>, <67, 5, 14, 9, 4, 0, 1, [1, 0, 0, 0, 0, 0, 0, 1]>, <68, 11, 20, 9, 4, 0, 1, [1, 0, 0, 0, 0, 0, 0, 1]>, <69, 12, 21, 9, 4, 0, 1, [1, 0, 0, 0, 0, 0, 0, 1]>, <70, 15, 24, 9, 4, 0, 1, [1, 0, 0, 0, 0, 0, 0, 1]>, <71, 16, 25, 9, 4, 0, 1, [1, 0, 0, 0, 0, 0, 0, 1]>, <72, 17, 26, 9, 4, 0, 1, [1, 0, 0, 0, 0, 0, 0, 1]>, <73, 18, 27, 9, 4, 0, 1, [1, 0, 0, 0, 0, 0, 0, 1]>, <74, 19, 28, 9, 4, 0, 1, [1, 0, 0, 0, 0, 0, 0, 1]>, <75, 20, 29, 9, 4, 0, 1, [1, 0, 0, 0, 0, 0, 0, 1]>, <76, 4, 12, 8, 5, 1, 0, [0, 0, 1, 1, 0, 0, 0, 0]>, <77, 5, 13, 8, 5, 1, 0, [0, 0, 1, 1, 0, 0, 0, 0]>, <78, 11, 19, 8, 5, 1, 0, [0, 0, 1, 1, 0, 0, 0, 0]>, <79, 12, 20, 8, 5, 1, 0, [0, 0, 1, 1, 0, 0, 0, 0]>, <80, 16, 24, 8, 5, 1, 0, [0, 0, 1, 1, 0, 0, 0, 0]>, <81, 17, 25, 8, 5, 1, 0, [0, 0, 1, 1, 0, 0, 0, 0]>, <82, 18, 26, 8, 5, 1, 0, [0, 0, 1, 1, 0, 0, 0, 0]>, <83, 19, 27, 8, 5, 1, 0, [0, 0, 1, 1, 0, 0, 0, 0]>, <84, 20, 28, 8, 5, 1, 0, [0, 0, 1, 1, 0, 0, 0, 0]>, <85, 2, 12, 10, 6, 1, 0, [0, 0, 0, 0, 0, 1, 1, 0]>, <86, 3, 13, 10, 6, 1, 0, [0, 0, 0, 0, 0, 1, 1, 0]>, <87, 4, 14, 10, 6, 1, 0, [0, 0, 0, 0, 0, 1, 1, 0]>, <88, 5, 15, 10, 6, 1, 0, [0, 0, 0, 0, 0, 1, 1, 0]>, <89, 10, 20, 10, 6, 1, 0, [0, 0, 0, 0, 0, 1, 1, 0]>, <90, 11, 21, 10, 6, 1, 0, [0, 0, 0, 0, 0, 1, 1, 0]>, <91, 12, 22, 10, 6, 1, 0, [0, 0, 0, 0, 0, 1, 1, 0]>, <92, 14, 24, 10, 6, 1, 0, [0, 0, 0, 0, 0, 1, 1, 0]>, <93, 15, 25, 10, 6, 1, 0, [0, 0, 0, 0, 0, 1, 1, 0]>, <94, 16, 26, 10, 6, 1, 0, [0, 0, 0, 0, 0, 1, 1, 0]>, <95, 17, 27, 10, 6, 1, 0, [0, 0, 0, 0, 0, 1, 1, 0]>, <96, 18, 28, 10, 6, 1, 0, [0, 0, 0, 0, 0, 1, 1, 0]>, <97, 19, 29, 10, 6, 1, 0, [0, 0, 0, 0, 0, 1, 1, 0]>, <98, 0, 12, 12, 7, 0, 0, [0, 0, 0, 0, 0, 1, 1, 0]>, <99, 1, 13, 12, 7, 0, 0, [0, 0, 0, 0, 0, 1, 1, 0]>, <100, 2, 14, 12, 7, 0, 0, [0, 0, 0, 0, 0, 1, 1, 0]>, <101, 3, 15, 12, 7, 0, 0, [0, 0, 0, 0, 0, 1, 1, 0]>, <102, 4, 16, 12, 7, 0, 0, [0, 0, 0, 0, 0, 1, 1, 0]>, <103, 5, 17, 12, 7, 0, 0, [0, 0, 0, 0, 0, 1, 1, 0]>, <104, 8, 20, 12, 7, 0, 0, [0, 0, 0, 0, 0, 1, 1, 0]>, <105, 9, 21, 12, 7, 0, 0, [0, 0, 0, 0, 0, 1, 1, 0]>, <106, 10, 22, 12, 7, 0, 0, [0, 0, 0, 0, 0, 1, 1, 0]>, <107, 11, 23, 12, 7, 0, 0, [0, 0, 0, 0, 0, 1, 1, 0]>, <108, 12, 24, 12, 7, 0, 0, [0, 0, 0, 0, 0, 1, 1, 0]>, <109, 13, 25, 12, 7, 0, 0, [0, 0, 0, 0, 0, 1, 1, 0]>, <110, 14, 26, 12, 7, 0, 0, [0, 0, 0, 0, 0, 1, 1, 0]>, <111, 15, 27, 12, 7, 0, 0, [0, 0, 0, 0, 0, 1, 1, 0]>, <112, 16, 28, 12, 7, 0, 0, [0, 0, 0, 0, 0, 1, 1, 0]>, <113, 17, 29, 12, 7, 0, 0, [0, 0, 0, 0, 0, 1, 1, 0]>, <114, 1, 12, 11, 8, 1, 0, [0, 0, 0, 0, 0, 0, 1, 1]>, <115, 2, 13, 11, 8, 1, 0, [0, 0, 0, 0, 0, 0, 1, 1]>, <116, 3, 14, 11, 8, 1, 0, [0, 0, 0, 0, 0, 0, 1, 1]>, <117, 4, 15, 11, 8, 1, 0, [0, 0, 0, 0, 0, 0, 1, 1]>, <118, 5, 16, 11, 8, 1, 0, [0, 0, 0, 0, 0, 0, 1, 1]>, <119, 9, 20, 11, 8, 1, 0, [0, 0, 0, 0, 0, 0, 1, 1]>, <120, 10, 21, 11, 8, 1, 0, [0, 0, 0, 0, 0, 0, 1, 1]>, <121, 11, 22, 11, 8, 1, 0, [0, 0, 0, 0, 0, 0, 1, 1]>, <122, 12, 23, 11, 8, 1, 0, [0, 0, 0, 0, 0, 0, 1, 1]>, <123, 13, 24, 11, 8, 1, 0, [0, 0, 0, 0, 0, 0, 1, 1]>, <124, 14, 25, 11, 8, 1, 0, [0, 0, 0, 0, 0, 0, 1, 1]>, <125, 15, 26, 11, 8, 1, 0, [0, 0, 0, 0, 0, 0, 1, 1]>, <126, 16, 27, 11, 8, 1, 0, [0, 0, 0, 0, 0, 0, 1, 1]>, <127, 17, 28, 11, 8, 1, 0, [0, 0, 0, 0, 0, 0, 1, 1]>, <128, 18, 29, 11, 8, 1, 0, [0, 0, 0, 0, 0, 0, 1, 1]>, <129, 4, 12, 8, 9, 1, 0, [0, 0, 1, 1, 0, 0, 0, 0]>, <130, 5, 13, 8, 9, 1, 0, [0, 0, 1, 1, 0, 0, 0, 0]>, <131, 11, 19, 8, 9, 1, 0, [0, 0, 1, 1, 0, 0, 0, 0]>, <132, 12, 20, 8, 9, 1, 0, [0, 0, 1, 1, 0, 0, 0, 0]>, <133, 16, 24, 8, 9, 1, 0, [0, 0, 1, 1, 0, 0, 0, 0]>, <134, 17, 25, 8, 9, 1, 0, [0, 0, 1, 1, 0, 0, 0, 0]>, <135, 18, 26, 8, 9, 1, 0, [0, 0, 1, 1, 0, 0, 0, 0]>, <136, 19, 27, 8, 9, 1, 0, [0, 0, 1, 1, 0, 0, 0, 0]>, <137, 20, 28, 8, 9, 1, 0, [0, 0, 1, 1, 0, 0, 0, 0]>, <138, 4, 11, 7, 10, 0, 0, [0, 1, 1, 0, 0, 0, 0, 0]>, <139, 5, 12, 7, 10, 0, 0, [0, 1, 1, 0, 0, 0, 0, 0]>, <140, 11, 18, 7, 10, 0, 0, [0, 1, 1, 0, 0, 0, 0, 0]>, <141, 12, 19, 7, 10, 0, 0, [0, 1, 1, 0, 0, 0, 0, 0]>, <142, 17, 24, 7, 10, 0, 0, [0, 1, 1, 0, 0, 0, 0, 0]>, <143, 18, 25, 7, 10, 0, 0, [0, 1, 1, 0, 0, 0, 0, 0]>, <144, 19, 26, 7, 10, 0, 0, [0, 1, 1, 0, 0, 0, 0, 0]>, <145, 20, 27, 7, 10, 0, 0, [0, 1, 1, 0, 0, 0, 0, 0]>, <146, 4, 11, 7, 11, 0, 1, [1, 0, 0, 0, 0, 0, 0, 1]>, <147, 5, 12, 7, 11, 0, 1, [1, 0, 0, 0, 0, 0, 0, 1]>, <148, 11, 18, 7, 11, 0, 1, [1, 0, 0, 0, 0, 0, 0, 1]>, <149, 12, 19, 7, 11, 0, 1, [1, 0, 0, 0, 0, 0, 0, 1]>, <150, 17, 24, 7, 11, 0, 1, [1, 0, 0, 0, 0, 0, 0, 1]>, <151, 18, 25, 7, 11, 0, 1, [1, 0, 0, 0, 0, 0, 0, 1]>, <152, 19, 26, 7, 11, 0, 1, [1, 0, 0, 0, 0, 0, 0, 1]>, <153, 20, 27, 7, 11, 0, 1, [1, 0, 0, 0, 0, 0, 0, 1]>, <154, 4, 12, 8, 12, 0, 1, [1, 0, 0, 0, 0, 0, 0, 1]>, <155, 5, 13, 8, 12, 0, 1, [1, 0, 0, 0, 0, 0, 0, 1]>, <156, 11, 19, 8, 12, 0, 1, [1, 0, 0, 0, 0, 0, 0, 1]>, <157, 12, 20, 8, 12, 0, 1, [1, 0, 0, 0, 0, 0, 0, 1]>, <158, 16, 24, 8, 12, 0, 1, [1, 0, 0, 0, 0, 0, 0, 1]>, <159, 17, 25, 8, 12, 0, 1, [1, 0, 0, 0, 0, 0, 0, 1]>, <160, 18, 26, 8, 12, 0, 1, [1, 0, 0, 0, 0, 0, 0, 1]>, <161, 19, 27, 8, 12, 0, 1, [1, 0, 0, 0, 0, 0, 0, 1]>, <162, 20, 28, 8, 12, 0, 1, [1, 0, 0, 0, 0, 0, 0, 1]>, <163, 1, 12, 11, 13, 0, 0, [0, 0, 1, 1, 0, 0, 0, 0]>, <164, 2, 13, 11, 13, 0, 0, [0, 0, 1, 1, 0, 0, 0, 0]>, <165, 3, 14, 11, 13, 0, 0, [0, 0, 1, 1, 0, 0, 0, 0]>, <166, 4, 15, 11, 13, 0, 0, [0, 0, 1, 1, 0, 0, 0, 0]>, <167, 5, 16, 11, 13, 0, 0, [0, 0, 1, 1, 0, 0, 0, 0]>, <168, 9, 20, 11, 13, 0, 0, [0, 0, 1, 1, 0, 0, 0, 0]>, <169, 10, 21, 11, 13, 0, 0, [0, 0, 1, 1, 0, 0, 0, 0]>, <170, 11, 22, 11, 13, 0, 0, [0, 0, 1, 1, 0, 0, 0, 0]>, <171, 12, 23, 11, 13, 0, 0, [0, 0, 1, 1, 0, 0, 0, 0]>, <172, 13, 24, 11, 13, 0, 0, [0, 0, 1, 1, 0, 0, 0, 0]>, <173, 14, 25, 11, 13, 0, 0, [0, 0, 1, 1, 0, 0, 0, 0]>, <174, 15, 26, 11, 13, 0, 0, [0, 0, 1, 1, 0, 0, 0, 0]>, <175, 16, 27, 11, 13, 0, 0, [0, 0, 1, 1, 0, 0, 0, 0]>, <176, 17, 28, 11, 13, 0, 0, [0, 0, 1, 1, 0, 0, 0, 0]>, <177, 18, 29, 11, 13, 0, 0, [0, 0, 1, 1, 0, 0, 0, 0]>, <178, 2, 12, 10, 14, 0, 0, [0, 0, 0, 1, 1, 0, 0, 0]>, <179, 3, 13, 10, 14, 0, 0, [0, 0, 0, 1, 1, 0, 0, 0]>, <180, 4, 14, 10, 14, 0, 0, [0, 0, 0, 1, 1, 0, 0, 0]>, <181, 5, 15, 10, 14, 0, 0, [0, 0, 0, 1, 1, 0, 0, 0]>, <182, 10, 20, 10, 14, 0, 0, [0, 0, 0, 1, 1, 0, 0, 0]>, <183, 11, 21, 10, 14, 0, 0, [0, 0, 0, 1, 1, 0, 0, 0]>, <184, 12, 22, 10, 14, 0, 0, [0, 0, 0, 1, 1, 0, 0, 0]>, <185, 14, 24, 10, 14, 0, 0, [0, 0, 0, 1, 1, 0, 0, 0]>, <186, 15, 25, 10, 14, 0, 0, [0, 0, 0, 1, 1, 0, 0, 0]>, <187, 16, 26, 10, 14, 0, 0, [0, 0, 0, 1, 1, 0, 0, 0]>, <188, 17, 27, 10, 14, 0, 0, [0, 0, 0, 1, 1, 0, 0, 0]>, <189, 18, 28, 10, 14, 0, 0, [0, 0, 0, 1, 1, 0, 0, 0]>, <190, 19, 29, 10, 14, 0, 0, [0, 0, 0, 1, 1, 0, 0, 0]>, <191, 1, 12, 11, 15, 0, 0, [0, 0, 0, 0, 1, 1, 0, 0]>, <192, 2, 13, 11, 15, 0, 0, [0, 0, 0, 0, 1, 1, 0, 0]>, <193, 3, 14, 11, 15, 0, 0, [0, 0, 0, 0, 1, 1, 0, 0]>, <194, 4, 15, 11, 15, 0, 0, [0, 0, 0, 0, 1, 1, 0, 0]>, <195, 5, 16, 11, 15, 0, 0, [0, 0, 0, 0, 1, 1, 0, 0]>, <196, 9, 20, 11, 15, 0, 0, [0, 0, 0, 0, 1, 1, 0, 0]>, <197, 10, 21, 11, 15, 0, 0, [0, 0, 0, 0, 1, 1, 0, 0]>, <198, 11, 22, 11, 15, 0, 0, [0, 0, 0, 0, 1, 1, 0, 0]>, <199, 12, 23, 11, 15, 0, 0, [0, 0, 0, 0, 1, 1, 0, 0]>, <200, 13, 24, 11, 15, 0, 0, [0, 0, 0, 0, 1, 1, 0, 0]>, <201, 14, 25, 11, 15, 0, 0, [0, 0, 0, 0, 1, 1, 0, 0]>, <202, 15, 26, 11, 15, 0, 0, [0, 0, 0, 0, 1, 1, 0, 0]>, <203, 16, 27, 11, 15, 0, 0, [0, 0, 0, 0, 1, 1, 0, 0]>, <204, 17, 28, 11, 15, 0, 0, [0, 0, 0, 0, 1, 1, 0, 0]>, <205, 18, 29, 11, 15, 0, 0, [0, 0, 0, 0, 1, 1, 0, 0]>, <206, 0, 12, 12, 16, 0, 1, [0, 0, 1, 1, 0, 0, 0, 0]>, <207, 1, 13, 12, 16, 0, 1, [0, 0, 1, 1, 0, 0, 0, 0]>, <208, 2, 14, 12, 16, 0, 1, [0, 0, 1, 1, 0, 0, 0, 0]>, <209, 3, 15, 12, 16, 0, 1, [0, 0, 1, 1, 0, 0, 0, 0]>, <210, 4, 16, 12, 16, 0, 1, [0, 0, 1, 1, 0, 0, 0, 0]>, <211, 5, 17, 12, 16, 0, 1, [0, 0, 1, 1, 0, 0, 0, 0]>, <212, 8, 20, 12, 16, 0, 1, [0, 0, 1, 1, 0, 0, 0, 0]>, <213, 9, 21, 12, 16, 0, 1, [0, 0, 1, 1, 0, 0, 0, 0]>, <214, 10, 22, 12, 16, 0, 1, [0, 0, 1, 1, 0, 0, 0, 0]>, <215, 11, 23, 12, 16, 0, 1, [0, 0, 1, 1, 0, 0, 0, 0]>, <216, 12, 24, 12, 16, 0, 1, [0, 0, 1, 1, 0, 0, 0, 0]>, <217, 13, 25, 12, 16, 0, 1, [0, 0, 1, 1, 0, 0, 0, 0]>, <218, 14, 26, 12, 16, 0, 1, [0, 0, 1, 1, 0, 0, 0, 0]>, <219, 15, 27, 12, 16, 0, 1, [0, 0, 1, 1, 0, 0, 0, 0]>, <220, 16, 28, 12, 16, 0, 1, [0, 0, 1, 1, 0, 0, 0, 0]>, <221, 17, 29, 12, 16, 0, 1, [0, 0, 1, 1, 0, 0, 0, 0]>, <222, 1, 12, 11, 17, 0, 1, [0, 0, 0, 1, 1, 0, 0, 0]>, <223, 2, 13, 11, 17, 0, 1, [0, 0, 0, 1, 1, 0, 0, 0]>, <224, 3, 14, 11, 17, 0, 1, [0, 0, 0, 1, 1, 0, 0, 0]>, <225, 4, 15, 11, 17, 0, 1, [0, 0, 0, 1, 1, 0, 0, 0]>, <226, 5, 16, 11, 17, 0, 1, [0, 0, 0, 1, 1, 0, 0, 0]>, <227, 9, 20, 11, 17, 0, 1, [0, 0, 0, 1, 1, 0, 0, 0]>, <228, 10, 21, 11, 17, 0, 1, [0, 0, 0, 1, 1, 0, 0, 0]>, <229, 11, 22, 11, 17, 0, 1, [0, 0, 0, 1, 1, 0, 0, 0]>, <230, 12, 23, 11, 17, 0, 1, [0, 0, 0, 1, 1, 0, 0, 0]>, <231, 13, 24, 11, 17, 0, 1, [0, 0, 0, 1, 1, 0, 0, 0]>, <232, 14, 25, 11, 17, 0, 1, [0, 0, 0, 1, 1, 0, 0, 0]>, <233, 15, 26, 11, 17, 0, 1, [0, 0, 0, 1, 1, 0, 0, 0]>, <234, 16, 27, 11, 17, 0, 1, [0, 0, 0, 1, 1, 0, 0, 0]>, <235, 17, 28, 11, 17, 0, 1, [0, 0, 0, 1, 1, 0, 0, 0]>, <236, 18, 29, 11, 17, 0, 1, [0, 0, 0, 1, 1, 0, 0, 0]>, <237, 4, 12, 8, 18, 0, 0, [1, 1, 0, 0, 0, 0, 0, 0]>, <238, 5, 13, 8, 18, 0, 0, [1, 1, 0, 0, 0, 0, 0, 0]>, <239, 11, 19, 8, 18, 0, 0, [1, 1, 0, 0, 0, 0, 0, 0]>, <240, 12, 20, 8, 18, 0, 0, [1, 1, 0, 0, 0, 0, 0, 0]>, <241, 16, 24, 8, 18, 0, 0, [1, 1, 0, 0, 0, 0, 0, 0]>, <242, 17, 25, 8, 18, 0, 0, [1, 1, 0, 0, 0, 0, 0, 0]>, <243, 18, 26, 8, 18, 0, 0, [1, 1, 0, 0, 0, 0, 0, 0]>, <244, 19, 27, 8, 18, 0, 0, [1, 1, 0, 0, 0, 0, 0, 0]>, <245, 20, 28, 8, 18, 0, 0, [1, 1, 0, 0, 0, 0, 0, 0]>, <246, 4, 12, 8, 19, 0, 0, [0, 0, 0, 0, 0, 0, 1, 1]>, <247, 5, 13, 8, 19, 0, 0, [0, 0, 0, 0, 0, 0, 1, 1]>, <248, 11, 19, 8, 19, 0, 0, [0, 0, 0, 0, 0, 0, 1, 1]>, <249, 12, 20, 8, 19, 0, 0, [0, 0, 0, 0, 0, 0, 1, 1]>, <250, 16, 24, 8, 19, 0, 0, [0, 0, 0, 0, 0, 0, 1, 1]>, <251, 17, 25, 8, 19, 0, 0, [0, 0, 0, 0, 0, 0, 1, 1]>, <252, 18, 26, 8, 19, 0, 0, [0, 0, 0, 0, 0, 0, 1, 1]>, <253, 19, 27, 8, 19, 0, 0, [0, 0, 0, 0, 0, 0, 1, 1]>, <254, 20, 28, 8, 19, 0, 0, [0, 0, 0, 0, 0, 0, 1, 1]>, <255, 2, 12, 10, 20, 0, 0, [0, 0, 0, 0, 0, 1, 1, 0]>, <256, 3, 13, 10, 20, 0, 0, [0, 0, 0, 0, 0, 1, 1, 0]>, <257, 4, 14, 10, 20, 0, 0, [0, 0, 0, 0, 0, 1, 1, 0]>, <258, 5, 15, 10, 20, 0, 0, [0, 0, 0, 0, 0, 1, 1, 0]>, <259, 10, 20, 10, 20, 0, 0, [0, 0, 0, 0, 0, 1, 1, 0]>, <260, 11, 21, 10, 20, 0, 0, [0, 0, 0, 0, 0, 1, 1, 0]>, <261, 12, 22, 10, 20, 0, 0, [0, 0, 0, 0, 0, 1, 1, 0]>, <262, 14, 24, 10, 20, 0, 0, [0, 0, 0, 0, 0, 1, 1, 0]>, <263, 15, 25, 10, 20, 0, 0, [0, 0, 0, 0, 0, 1, 1, 0]>, <264, 16, 26, 10, 20, 0, 0, [0, 0, 0, 0, 0, 1, 1, 0]>, <265, 17, 27, 10, 20, 0, 0, [0, 0, 0, 0, 0, 1, 1, 0]>, <266, 18, 28, 10, 20, 0, 0, [0, 0, 0, 0, 0, 1, 1, 0]>, <267, 19, 29, 10, 20, 0, 0, [0, 0, 0, 0, 0, 1, 1, 0]>, <268, 1, 12, 11, 21, 1, 0, [1, 1, 0, 0, 0, 0, 0, 0]>, <269, 2, 13, 11, 21, 1, 0, [1, 1, 0, 0, 0, 0, 0, 0]>, <270, 3, 14, 11, 21, 1, 0, [1, 1, 0, 0, 0, 0, 0, 0]>, <271, 4, 15, 11, 21, 1, 0, [1, 1, 0, 0, 0, 0, 0, 0]>, <272, 5, 16, 11, 21, 1, 0, [1, 1, 0, 0, 0, 0, 0, 0]>, <273, 9, 20, 11, 21, 1, 0, [1, 1, 0, 0, 0, 0, 0, 0]>, <274, 10, 21, 11, 21, 1, 0, [1, 1, 0, 0, 0, 0, 0, 0]>, <275, 11, 22, 11, 21, 1, 0, [1, 1, 0, 0, 0, 0, 0, 0]>, <276, 12, 23, 11, 21, 1, 0, [1, 1, 0, 0, 0, 0, 0, 0]>, <277, 13, 24, 11, 21, 1, 0, [1, 1, 0, 0, 0, 0, 0, 0]>, <278, 14, 25, 11, 21, 1, 0, [1, 1, 0, 0, 0, 0, 0, 0]>, <279, 15, 26, 11, 21, 1, 0, [1, 1, 0, 0, 0, 0, 0, 0]>, <280, 16, 27, 11, 21, 1, 0, [1, 1, 0, 0, 0, 0, 0, 0]>, <281, 17, 28, 11, 21, 1, 0, [1, 1, 0, 0, 0, 0, 0, 0]>, <282, 18, 29, 11, 21, 1, 0, [1, 1, 0, 0, 0, 0, 0, 0]>};
